c
c start with comments
c
p cnf 22 21
6 -4 0
-7 -7 0
-19 -5 -15 11 0
-16 21 -8 -12 0
13 -21 -17 0
12 2 0
-18 -19 22 -14 -14 0
-10 -11 -11 -9 0
-8 -13 3 -8 0
-9 3 1 7 0
-8 4 20 -2 -17 0
21 -5 4 0
9 18 0
-22 -8 -15 0
14 15 0
5 -10 21 0
-2 3 10 0
-8 -21 -3 0
-20 -2 -1 13 19 0
-1 -8 5 0
7 -5 -6 0